% Model:              Untitled.mph
% Version:            COMSOL 6.0.0.405
% Date:               Aug 27 2022, 12:08
% Table:              Table 1 - Point Evaluation 1
% mesh_size              von Mises stress (N/m^2), Point: 5von Mises stress (N/m^2), Point: 6von Mises stress (N/m^2), Point: 5von Mises stress (N/m^2), Point: 6
1                        1841748.763691068        1748479.2222075108       2167488.602128598        2165049.6578678736
0.8                      1808704.445098145        1796872.585745627        2180214.3874495397       2162995.3342932314
0.6                      1839061.2902862402       1845964.3583432245       2161315.022139212        2179220.6928569935
0.4                      1849796.2370138424       1867982.5771400654       2162752.0227312427       2167342.210334764
0.2                      1853423.9357566386       1875991.7160239983       2180394.3413553135       2185836.5635893256
0.1                      1995514.1479006587       2009379.9379270794       2180666.8825000124       2178696.0333066843
0.09                     2007870.8571776375       1988852.2712724223       2165360.7658757763       2176277.9766859855
0.08                     2007966.4227142376       2039319.0828992566       2176054.460092674        2176908.6413807524
0.07                     2055038.3199845303       2053232.3105243926       2177072.6807441316       2177319.370331657
0.06                     2082069.6536937053       2074633.9249254619       2170251.2651596237       2170861.9087515166
0.05                     2100849.0505507197       2089762.9506780556       2178319.3628314324       2180696.8409166075
