% Model:              Untitled.mph
% Version:            COMSOL 6.0.0.405
% Date:               Aug 27 2022, 12:46
% Table:              Table 1 - Point Evaluation 1
% mesh_size              von Mises stress (N/m^2), Point: 5von Mises stress (N/m^2), Point: 6von Mises stress (N/m^2), Point: 5von Mises stress (N/m^2), Point: 6
1                        1809310.1431722546       1762416.3628363027       1850037.3149339438       1759582.285243522
0.8                      1849796.2370138424       1867982.5771400654       1827977.4833921075       1867038.8578483346
0.6                      1785630.8382107525       1745551.4438407156       1823975.1229514377       1868887.960991473
0.4                      1853423.9357566386       1875991.7160239983       1897736.004041194        1926042.925506021
0.2                      1995514.1479006633       2009379.9379270729       2067036.17401424         2056559.7868957357
0.1                      2100849.0505506513       2089762.9506780903       2135548.4221123094       2135640.392840118
0.09                     2111483.4494801066       2113891.3484285567       2138853.705674623        2139075.8227806375
0.08                     2121892.2118980857       2120893.268990849        2145966.7019352717       2146015.5039641447
0.07                     2134192.2121019303       2132735.003191563        2151677.417247089        2151575.014993741
0.06                     2138853.7056746744       2139075.8227806874       2156200.5842248066       2156284.584817698
0.05                     2149404.70531952         2149562.406895588        2160112.5629322426       2159884.1875843657
